n = 15
Q1 = [0 12 18 0 0 0 0 0 0 0 0 30 14 0 0; 0 0 19 0 0 49 29 0 0 16 0 16 49 0 0; 0 0 0 0 24 0 0 0 0 0 11 0 0 0 0; 0 0 0 0 0 0 45 0 0 0 26 0 0 10 8; 0 0 0 0 0 0 0 0 0 0 0 0 0 0 0; 0 0 0 0 0 0 0 18 0 0 39 0 19 49 0; 0 0 0 0 0 0 0 0 7 0 0 23 0 0 0; 0 0 0 0 0 0 0 0 29 11 0 0 0 31 0; 0 0 0 0 0 0 0 0 0 0 0 0 24 0 0; 0 0 0 0 0 0 0 0 0 0 25 0 44 0 0; 0 0 0 0 0 0 0 0 0 0 0 0 0 29 0; 0 0 0 0 0 0 0 0 0 0 0 0 41 43 41; 0 0 0 0 0 0 0 0 0 0 0 0 0 29 0; 0 0 0 0 0 0 0 0 0 0 0 0 0 0 0; 0 0 0 0 0 0 0 0 0 0 0 0 0 0 0]
Q2 = [0.0 42.0 36.0 0.0 0.0 0.0 0.0 0.0 0.0 0.0 0.0 16.0 42.0 0.0 0.0; 0.0 0.0 37.0 0.0 0.0 0.0 8.0 0.0 0.0 42.0 0.0 43.0 0.0 0.0 0.0; 0.0 0.0 0.0 0.0 26.0 0.0 0.0 0.0 0.0 0.0 41.0 0.0 0.0 0.0 0.0; 0.0 0.0 0.0 0.0 0.0 0.0 2.0 0.0 0.0 0.0 17.0 0.0 0.0 46.0 46.0; 0.0 0.0 0.0 0.0 0.0 0.0 0.0 0.0 0.0 0.0 0.0 0.0 0.0 0.0 0.0; 0.0 0.0 0.0 0.0 0.0 0.0 0.0 44.0 0.0 0.0 0.0 0.0 40.0 0.0 0.0; 0.0 0.0 0.0 0.0 0.0 0.0 0.0 0.0 49.0 0.0 0.0 41.0 0.0 0.0 0.0; 0.0 0.0 0.0 0.0 0.0 0.0 0.0 0.0 7.0 49.0 0.0 0.0 0.0 6.0 0.0; 0.0 0.0 0.0 0.0 0.0 0.0 0.0 0.0 0.0 0.0 0.0 0.0 46.0 0.0 0.0; 0.0 0.0 0.0 0.0 0.0 0.0 0.0 0.0 0.0 0.0 10.0 0.0 4.0 0.0 0.0; 0.0 0.0 0.0 0.0 0.0 0.0 0.0 0.0 0.0 0.0 0.0 0.0 0.0 9.0 0.0; 0.0 0.0 0.0 0.0 0.0 0.0 0.0 0.0 0.0 0.0 0.0 0.0 0.0 2.0 6.0; 0.0 0.0 0.0 0.0 0.0 0.0 0.0 0.0 0.0 0.0 0.0 0.0 0.0 8.0 0.0; 0.0 0.0 0.0 0.0 0.0 0.0 0.0 0.0 0.0 0.0 0.0 0.0 0.0 0.0 0.0; 0.0 0.0 0.0 0.0 0.0 0.0 0.0 0.0 0.0 0.0 0.0 0.0 0.0 0.0 0.0]
Q3 = [0 11 1 70 70 70 70 70 70 70 70 11 7 70 70; 0 0 1 70 70 12 9 70 70 5 70 8 21 70 70; 0 0 0 70 4 70 70 70 70 70 4 70 70 70 70; 0 0 0 0 70 70 21 70 70 70 6 70 70 7 9; 0 0 0 0 0 70 70 70 70 70 70 70 70 70 70; 0 0 0 0 0 0 70 3 70 70 7 70 6 11 70; 0 0 0 0 0 0 0 70 7 70 70 1 70 70 70; 0 0 0 0 0 0 0 0 16 7 70 70 70 31 70; 0 0 0 0 0 0 0 0 0 70 70 70 0 70 70; 0 0 0 0 0 0 0 0 0 0 9 70 13 70 70; 0 0 0 0 0 0 0 0 0 0 0 70 70 5 70; 0 0 0 0 0 0 0 0 0 0 0 0 9 21 23; 0 0 0 0 0 0 0 0 0 0 0 0 0 10 70; 0 0 0 0 0 0 0 0 0 0 0 0 0 0 70; 0 0 0 0 0 0 0 0 0 0 0 0 0 0 0]
